p edge 300 1484
1 2
1 210
1 173
1 47
1 292
2 67
2 130
2 9
2 3
2 61
3 4
3 102
3 168
3 114
3 225
4 144
4 5
4 38
4 54
4 114
5 125
5 31
5 234
5 6
5 238
6 288
6 262
6 72
6 124
6 7
7 27
7 8
7 246
7 59
7 231
8 100
8 147
8 211
8 9
8 253
9 149
9 10
9 276
9 200
9 222
10 29
10 92
10 194
10 11
10 6
11 156
11 126
11 12
11 219
11 103
12 9
12 108
12 13
12 287
12 143
13 201
13 32
13 14
13 241
13 226
14 10
14 2
14 15
14 48
14 121
15 16
15 294
15 84
15 159
15 251
16 240
16 17
16 166
16 130
16 259
17 175
17 66
17 132
17 18
17 43
18 97
18 19
18 36
18 196
18 146
19 184
19 289
19 260
19 20
19 235
20 21
20 6
20 178
20 15
20 296
21 39
21 22
21 37
21 204
21 201
22 23
22 291
22 198
22 285
22 102
23 106
23 113
23 290
23 24
23 183
24 107
24 133
24 25
24 287
24 235
25 182
25 52
25 26
25 181
25 235
26 105
26 260
26 18
26 128
26 27
27 28
27 243
27 147
27 202
28 297
28 171
28 29
28 4
28 168
29 36
29 226
29 30
29 223
29 59
30 31
30 36
30 154
30 268
30 267
31 280
31 21
31 32
31 104
31 228
32 33
32 90
32 166
32 295
32 2
33 40
33 34
33 108
33 228
33 46
34 161
34 239
34 224
34 289
34 35
35 263
35 277
35 36
35 103
35 127
36 37
36 45
36 180
36 112
37 117
37 42
37 38
37 224
37 64
38 291
38 240
38 4
38 39
38 37
39 40
39 14
39 203
39 189
39 139
40 41
40 179
40 123
40 188
40 51
41 299
41 74
41 14
41 42
41 241
42 77
42 58
42 208
42 48
42 43
43 233
43 44
43 250
43 201
43 143
44 130
44 218
44 45
44 84
44 229
45 153
45 223
45 174
45 46
45 209
46 47
46 236
46 270
46 225
46 172
47 18
47 48
47 231
47 64
47 136
48 93
48 49
48 126
48 230
48 158
49 236
49 21
49 282
49 101
49 50
50 51
50 162
50 139
50 189
50 182
51 38
51 52
51 31
51 67
51 108
52 53
52 129
52 118
52 210
52 138
53 293
53 276
53 182
53 54
53 40
54 121
54 13
54 55
54 76
54 119
55 26
55 56
55 2
55 176
55 108
56 117
56 164
56 167
56 221
56 57
57 5
57 84
57 58
57 27
57 118
58 109
58 176
58 258
58 72
58 59
59 284
59 294
59 267
59 60
59 186
60 104
60 78
60 61
60 89
60 98
61 70
61 147
61 56
61 98
61 62
62 103
62 47
62 63
62 161
62 179
63 222
63 24
63 64
63 162
63 6
64 147
64 204
64 65
64 254
64 218
65 83
65 1
65 125
65 66
65 287
66 39
66 119
66 67
66 180
67 266
67 68
67 108
67 31
67 70
68 8
68 69
68 73
68 182
68 114
69 224
69 76
69 70
69 134
69 113
70 71
70 96
70 62
70 277
70 109
71 110
71 10
71 72
71 49
71 23
72 138
72 250
72 3
72 73
72 59
73 45
73 187
73 262
73 74
73 182
74 194
74 273
74 144
74 15
74 75
75 76
75 228
75 190
75 69
75 226
76 71
76 29
76 77
76 148
76 197
77 78
77 160
77 289
77 291
77 58
78 281
78 79
78 149
78 27
78 236
79 234
79 198
79 221
79 253
79 80
80 180
80 284
80 25
80 81
80 133
81 47
81 149
81 24
81 296
81 82
82 83
82 162
82 148
82 105
82 178
83 84
83 106
83 194
83 261
84 92
84 85
84 113
84 97
84 63
85 16
85 264
85 266
85 6
85 86
86 60
86 130
86 87
86 16
86 241
87 266
87 262
87 46
87 82
87 88
88 224
88 89
88 280
88 231
88 168
89 180
89 104
89 90
89 239
89 16
90 225
90 191
90 204
90 250
90 91
91 289
91 92
91 143
91 174
91 190
92 110
92 102
92 120
92 39
92 93
93 194
93 94
93 83
93 221
93 118
94 125
94 9
94 57
94 44
94 95
95 96
95 178
95 250
95 68
95 196
96 64
96 97
96 197
96 8
96 154
97 173
97 74
97 98
97 83
97 61
98 291
98 265
98 69
98 99
98 145
99 163
99 100
99 288
99 73
99 88
100 76
100 111
100 6
100 68
100 101
101 111
101 102
101 247
101 27
101 187
102 213
102 22
102 168
102 103
102 69
103 45
103 237
103 135
103 138
103 104
104 270
104 26
104 105
104 298
104 66
105 106
105 228
105 76
105 31
105 186
106 167
106 5
106 182
106 107
106 121
107 138
107 108
107 104
107 184
107 86
108 185
108 8
108 142
108 271
108 109
109 182
109 166
109 110
109 299
109 56
110 251
110 12
110 252
110 111
110 235
111 45
111 112
111 221
111 66
111 139
112 62
112 104
112 218
112 58
112 113
113 108
113 278
113 114
113 149
113 101
114 7
114 171
114 115
114 158
114 226
115 212
115 116
115 139
115 277
116 291
116 232
116 225
116 261
116 117
117 118
117 275
117 96
117 23
117 184
118 23
118 119
118 138
118 234
118 190
119 120
119 276
119 235
119 263
119 57
120 7
120 169
120 69
120 121
120 170
121 199
121 122
121 38
121 82
121 123
122 137
122 89
122 152
122 123
122 224
123 171
123 34
123 124
123 41
123 95
124 185
124 54
124 125
124 163
124 235
125 56
125 28
125 38
125 155
125 126
126 86
126 127
126 200
126 171
126 17
127 86
127 288
127 147
127 17
127 128
128 129
128 105
128 119
128 33
129 92
129 29
129 130
129 50
129 40
130 46
130 193
130 131
130 8
130 40
131 132
131 160
131 270
131 265
131 223
132 152
132 117
132 133
132 44
132 252
133 84
133 280
133 237
133 134
134 82
134 97
134 135
134 150
135 113
135 136
135 278
135 257
135 223
136 270
136 137
136 65
136 143
136 25
137 138
137 140
137 17
137 190
138 227
138 139
138 124
138 171
138 45
139 227
139 47
139 80
139 112
139 140
140 163
140 148
140 1
140 141
140 296
141 9
141 297
141 142
141 293
142 50
142 292
142 143
142 112
142 283
143 287
143 85
143 3
143 103
143 144
144 176
144 103
144 111
144 145
144 40
145 143
145 241
145 51
145 146
145 177
146 164
146 46
146 147
146 85
146 71
147 148
147 121
147 215
147 162
147 300
148 239
148 222
148 149
148 167
148 288
149 112
149 150
149 56
149 113
149 83
150 92
150 151
150 231
150 80
150 13
151 267
151 113
151 209
151 29
151 152
152 153
152 218
152 26
152 39
152 223
153 154
153 235
153 262
153 145
153 59
154 235
154 155
154 282
154 170
154 182
155 279
155 156
155 53
155 247
155 198
156 157
156 35
156 99
156 293
156 216
157 141
157 57
157 34
157 104
157 158
158 99
158 130
158 159
158 73
158 163
159 160
159 80
159 169
159 179
159 288
160 66
160 57
160 141
160 18
160 161
161 187
161 250
161 154
161 123
161 162
162 109
162 163
162 44
162 1
162 236
163 76
163 78
163 109
163 237
163 164
164 91
164 47
164 193
164 165
164 204
165 86
165 284
165 96
165 166
165 27
166 167
166 182
166 6
166 274
166 228
167 219
167 182
167 168
167 7
167 52
168 148
168 169
168 254
168 218
168 68
169 127
169 125
169 266
169 170
169 223
170 202
170 4
170 103
170 138
170 171
171 46
171 264
171 258
171 172
171 287
172 70
172 165
172 173
172 256
172 262
173 294
173 64
173 174
173 86
173 124
174 180
174 175
174 275
174 6
174 41
175 163
175 176
175 3
175 138
175 255
176 184
176 257
176 177
176 78
176 183
177 264
177 272
177 178
177 261
177 21
178 249
178 76
178 2
178 242
178 179
179 269
179 180
179 271
179 288
179 241
180 290
180 283
180 87
180 181
180 267
181 188
181 115
181 58
181 182
181 96
182 183
182 181
182 56
182 225
182 283
183 224
183 34
183 153
183 25
183 184
184 185
184 151
184 73
184 89
184 278
185 79
185 62
185 186
185 155
185 24
186 288
186 234
186 187
186 221
186 76
187 285
187 28
187 188
187 20
187 215
188 31
188 97
188 248
188 22
188 189
189 41
189 56
189 190
189 295
189 91
190 187
190 104
190 191
190 274
190 158
191 164
191 192
191 160
191 236
191 155
192 193
192 224
192 189
192 160
192 183
193 163
193 194
193 262
193 199
193 85
194 202
194 195
194 28
194 223
194 18
195 164
195 15
195 247
195 75
195 196
196 243
196 109
196 130
196 201
196 197
197 198
197 72
197 192
197 287
197 203
198 180
198 199
198 196
198 292
198 200
199 245
199 171
199 200
199 115
199 267
200 4
200 201
200 163
200 188
200 138
201 300
201 158
201 202
201 262
201 141
202 14
202 23
202 92
202 203
202 153
203 160
203 204
203 169
203 297
203 155
204 173
204 205
204 64
204 28
204 20
205 206
205 255
205 155
205 244
205 22
206 66
206 167
206 91
206 240
206 207
207 208
207 47
207 83
207 210
207 270
208 81
208 193
208 48
208 209
209 26
209 96
209 76
209 210
209 167
210 211
210 285
210 51
210 55
211 280
211 44
211 132
211 212
211 290
212 297
212 165
212 213
212 205
212 287
213 136
213 214
213 60
213 113
213 8
214 118
214 175
214 261
214 215
214 82
215 273
215 197
215 216
215 148
215 246
216 286
216 79
216 217
216 114
216 248
217 218
217 281
217 207
217 219
217 53
218 12
218 219
218 211
218 10
219 220
219 197
219 164
219 191
219 267
220 210
220 221
220 75
220 274
220 15
221 151
221 222
221 88
221 174
221 1
222 215
222 223
222 131
222 124
222 29
223 224
223 8
223 212
223 98
223 29
224 225
224 101
224 68
224 124
224 70
225 126
225 240
225 199
225 226
225 292
226 179
226 227
226 128
226 138
226 140
227 273
227 287
227 244
227 228
227 80
228 249
228 229
228 255
228 123
228 282
229 16
229 261
229 171
229 230
229 180
230 167
230 231
230 208
230 206
230 13
231 258
231 75
231 24
231 45
231 232
232 97
232 233
232 146
232 105
232 285
233 100
233 179
233 39
233 234
233 259
234 5
234 235
234 57
234 89
234 148
235 230
235 236
235 225
235 107
236 237
236 51
236 159
236 172
236 135
237 238
237 26
237 219
237 146
237 287
238 31
238 280
238 239
238 82
238 149
239 255
239 122
239 226
239 240
239 108
240 231
240 241
240 18
240 152
240 209
241 242
241 239
241 55
241 123
241 68
242 85
242 292
242 243
242 2
242 205
243 244
243 256
243 214
243 255
243 99
244 117
244 147
244 245
244 89
244 110
245 222
245 47
245 81
245 176
245 246
246 247
246 299
246 233
246 38
246 160
247 230
247 152
247 171
247 237
247 248
248 278
248 89
248 82
248 254
248 249
249 203
249 70
249 250
249 254
249 281
250 185
250 210
250 251
250 156
250 37
251 182
251 87
251 207
251 83
251 252
252 253
252 205
252 13
252 279
252 144
253 73
253 258
253 254
253 213
253 154
254 136
254 297
254 34
254 255
254 212
255 5
255 256
255 45
255 12
255 71
256 265
256 243
256 223
256 238
256 257
257 61
257 258
257 248
257 250
257 230
258 259
258 163
258 160
258 238
258 225
259 260
259 98
259 20
259 15
259 186
260 261
260 237
260 289
260 76
260 36
261 210
261 141
261 80
261 262
261 86
262 149
262 234
262 92
262 88
262 263
263 157
263 229
263 159
263 54
263 264
264 265
264 111
264 6
264 230
264 15
265 11
265 266
265 168
265 64
265 73
266 267
266 275
266 106
266 230
266 152
267 237
267 96
267 170
267 115
267 268
268 209
268 296
268 84
268 162
268 269
269 270
269 140
269 52
269 182
269 205
270 271
270 35
270 213
270 266
270 219
271 188
271 139
271 33
271 272
271 168
272 67
272 273
272 96
272 17
272 275
273 28
273 222
273 15
273 274
273 194
274 275
274 90
274 120
274 166
275 100
275 196
275 23
275 276
275 60
276 153
276 240
276 277
276 220
276 28
277 79
277 121
277 150
277 278
277 253
278 228
278 257
278 279
278 51
278 136
279 248
279 133
279 223
279 6
279 280
280 257
280 281
280 59
280 269
280 55
281 282
281 263
281 121
281 132
281 280
282 80
282 182
282 122
282 130
282 283
283 169
283 47
283 232
283 284
283 99
284 285
284 197
284 86
284 172
284 290
285 277
285 125
285 162
285 267
285 286
286 26
286 115
286 83
286 287
286 271
287 218
287 200
287 128
287 288
287 156
288 13
288 22
288 289
288 274
288 203
289 260
289 170
289 150
289 290
289 148
290 295
290 178
290 89
290 291
290 278
291 292
291 196
291 105
291 174
291 280
292 293
292 266
292 134
292 204
292 114
293 153
293 99
293 294
293 149
293 177
294 246
294 208
294 70
294 295
294 51
295 38
295 66
295 224
295 241
295 296
296 297
296 38
296 151
296 230
296 119
297 123
297 134
297 22
297 298
297 267
298 109
298 249
298 242
298 288
298 299
299 43
299 233
299 17
299 300
300 208
300 56
300 203
300 1
300 139
